001 001 000 001 002 001 002 005 005 001 002 003 008 005 007 005 003 005 011 005 006 004 003 003 002 005 006 006 005 009 009
001 001 000 001 001 002 002 003 002 003 001 002 004 004 004 004 004 004 007 009 006 003 002 002 003 005 006 006 007 009 012
002 001 001 001 002 002 002 001 003 002 001 002 004 003 004 003 003 004 004 004 004 003 003 004 003 006 007 005 006 007 017
004 002 001 001 001 002 001 001 002 002 003 003 003 001 002 002 003 003 002 002 004 004 004 004 004 007 007 005 008 011 021
003 004 002 001 001 001 001 001 001 002 003 003 001 001 001 001 002 002 001 002 003 005 005 005 004 005 007 005 006 008 020
003 003 002 001 001 001 001 001 001 001 001 002 001 000 001 002 002 002 002 001 003 006 004 006 004 005 006 005 006 009 025
002 002 002 002 001 001 001 001 000 001 001 001 001 001 001 002 002 001 002 001 002 004 003 006 004 005 007 007 -99 007 010
002 002 002 002 002 001 001 001 001 001 002 001 001 001 002 003 002 002 003 001 001 002 003 004 003 005 005 006 006 007 009
002 002 002 002 002 001 001 002 002 001 001 002 001 002 002 002 002 002 001 002 002 003 003 003 003 005 004 005 005 007 006
002 002 002 003 002 001 000 001 002 002 002 002 001 002 001 002 003 003 003 003 005 003 007 005 005 004 003 004 006 005 005
001 002 004 004 001 001 001 001 001 002 001 002 001 003 002 002 002 003 002 004 005 004 005 003 003 003 003 003 005 004 005
002 002 004 005 003 001 001 000 001 001 001 002 001 002 002 002 002 004 004 006 004 005 004 003 003 002 003 004 004 004 005
002 002 003 004 003 002 002 001 001 003 002 002 002 004 003 003 002 003 003 002 003 003 004 004 003 002 003 002 003 006 005
002 001 002 001 002 003 002 002 003 004 002 002 002 001 002 002 002 002 002 003 004 004 003 004 006 003 006 003 003 008 006
002 002 004 002 002 002 002 001 002 002 001 001 002 002 001 002 001 001 002 003 004 003 003 004 006 003 005 003 004 006 005
002 002 002 003 002 003 002 002 002 003 002 001 001 002 001 001 000 001 002 003 003 004 002 003 004 003 005 004 004 005 005
002 003 002 003 004 003 002 002 002 003 004 002 002 003 002 001 001 000 001 002 002 002 002 001 002 002 004 006 004 003 003
002 004 003 002 002 003 002 002 002 003 003 003 003 004 004 001 002 001 002 005 001 002 002 001 002 001 003 005 003 003 004
002 003 003 002 003 004 002 001 002 004 004 003 002 003 004 002 002 002 002 002 001 001 001 001 001 002 005 003 003 003 005
002 003 004 003 004 004 002 002 002 003 004 003 002 001 003 002 002 003 002 001 001 001 001 001 001 003 002 003 003 003 004
003 004 004 005 004 005 002 002 004 004 005 006 004 001 001 001 002 003 002 001 002 003 001 001 003 003 002 002 002 004 004
004 003 006 005 004 004 003 003 005 005 008 010 005 001 001 003 002 007 007 003 006 009 004 003 004 004 002 -99 -99 -99 -99
007 007 007 003 003 003 004 006 010 007 017 014 006 003 002 004 004 010 011 004 007 014 006 004 006 004 002 -99 -99 -99 -99
003 002 003 002 002 004 004 009 024 022 021 015 011 008 007 013 015 027 023 007 015 033 018 009 010 005 006 -99 -99 -99 005
003 003 004 003 004 002 003 005 019 018 024 015 013 014 005 014 028 029 018 013 021 028 031 017 008 005 006 -99 -99 -99 005
005 005 011 013 006 003 004 005 011 024 035 042 016 014 008 020 015 009 008 012 017 017 031 020 -99 -99 -99 -99 -99 003 003
006 006 019 021 010 007 005 004 008 032 029 035 024 017 012 012 006 003 005 007 004 004 009 -99 -99 -99 -99 -99 -99 002 002
007 009 022 017 008 006 005 007 005 029 031 033 028 014 011 007 003 003 006 005 003 001 004 -99 -99 -99 -99 -99 002 002 001
007 015 015 013 009 009 010 010 006 024 037 036 024 013 004 004 003 002 003 003 002 001 004 -99 -99 -99 -99 -99 003 001 001
012 016 014 011 012 012 012 009 006 031 032 033 016 006 004 005 003 002 002 002 002 001 003 001 -99 002 -99 009 006 001 001
012 011 012 011 016 014 011 009 013 031 028 014 005 006 004 006 006 002 003 003 003 002 002 000 001 002 001 009 009 001 001
005 007 006 010 009 030 013 008 007 010 012 003 002 005 007 021 010 006 003 001 001 000 001 000 000 001 001 011 011 001 001
006 008 005 006 011 021 009 007 005 009 006 002 004 004 004 007 010 011 004 001 000 000 001 000 000 000 001 004 001 001 001
006 008 010 010 014 017 006 006 004 004 005 002 005 004 010 007 011 012 003 000 001 000 000 000 000 000 001 001 000 002 001
005 009 007 015 008 010 008 003 003 002 003 002 003 003 012 005 010 007 003 002 001 001 000 000 000 000 000 001 000 001 002
002 003 005 008 005 003 003 006 002 002 002 002 001 003 006 004 011 012 009 008 002 000 001 000 000 000 000 000 001 002 002
001 001 004 002 003 004 003 003 001 002 002 001 000 000 001 002 021 016 052 019 004 001 001 002 005 001 000 000 000 001 000
000 000 001 001 002 002 002 003 003 002 002 000 000 000 000 002 014 017 064 025 006 001 005 026 010 002 002 002 001 003 002
000 000 000 001 001 002 002 001 002 001 002 001 000 000 000 001 000 004 011 020 008 003 017 035 024 004 007 007 002 009 006
001 000 000 001 001 001 001 001 001 001 001 001 000 000 000 000 000 001 003 006 018 007 015 041 029 018 028 006 004 017 006
001 000 000 000 000 000 000 000 000 001 001 001 000 000 000 000 000 000 000 011 018 014 022 042 046 038 013 006 009 013 005
002 000 000 000 000 000 000 000 000 000 000 000 000 000 000 000 000 000 000 012 014 018 020 034 054 019 016 007 010 005 003
004 004 001 000 000 000 000 000 000 000 000 000 000 000 000 000 000 000 000 013 009 018 018 035 037 018 016 006 009 007 003
005 007 002 001 001 000 000 000 000 000 000 000 000 000 000 000 000 000 001 005 006 012 013 034 038 022 010 002 009 005 003
009 008 004 002 003 002 001 000 000 000 000 000 000 000 000 000 000 000 001 004 006 009 007 029 031 016 008 003 007 006 002
005 006 003 003 004 002 002 001 001 000 000 000 000 000 000 000 000 000 005 009 005 003 006 012 028 010 006 005 008 008 004
002 003 003 002 002 003 004 003 000 000 000 000 000 000 000 000 000 000 004 005 003 004 005 007 006 005 006 006 010 010 005
001 002 002 002 001 003 006 007 002 000 000 000 000 000 000 000 000 000 003 007 005 007 005 003 007 006 006 009 009 013 009
000 001 001 000 001 005 013 011 003 001 001 001 000 000 000 000 000 000 004 008 006 012 012 016 011 006 006 009 009 011 007
000 001 000 000 001 005 007 017 005 003 003 006 004 001 000 000 000 000 003 006 005 021 016 023 018 009 009 006 009 007 006
000 001 001 000 000 004 005 012 007 010 008 010 007 009 006 000 000 000 001 001 008 026 028 029 016 012 018 019 011 007 005
000 000 000 000 000 000 001 003 008 008 007 012 013 016 005 000 000 000 000 003 009 007 025 031 009 013 022 022 013 012 005
000 000 000 000 000 000 000 001 004 005 004 003 008 012 007 002 000 001 004 005 003 005 009 009 004 013 020 011 010 007 002
000 000 000 000 000 000 000 001 002 003 002 002 004 006 006 001 001 003 007 002 008 005 005 002 001 003 005 005 006 004 000
002 000 000 000 000 000 000 001 002 001 001 002 002 004 004 000 001 005 005 005 012 005 002 000 000 000 001 003 004 001 000
